;--------------------------------------------------------------------------
; Benchmark created with Zazu
; Benchmark: 		simpleloopV2_norm_inv1_1xlen4
; Created:   		2022-01-11 18:12
; Generator of the ideal: 
; 		 x - y00 - x00 + y
; Testing invariant: -x^2*y^2*y00 - x*x00*y^3 + 2*x^2*y^3 - x*y^3*y00 + 2*x^2*y - x^2*x00*y^2 + x^3*y^2 - 2*x*y*y00 - 2*x*x00*y + 2*x*y^2 + x*y^4
;--------------------------------------------------------------------------

(set-logic NIA)
(set-option :produce-proofs true)

(declare-const x00 Int)
(declare-const y00 Int)

(assert 
	(exists
		((x Int) (y Int))
		(and
			(= (+ (- x y00 x00) y) 0)

			(or
				(not (= (+ (- (+ (- (+ (- (+ (- (* (- 1) (- x 1) (- x 1) (+ y 1) (+ y 1) y00) (* (- x 1) x00 (+ y 1) (+ y 1) (+ y 1))) (* 2 (- x 1) (- x 1) (+ y 1) (+ y 1) (+ y 1))) (* (- x 1) (+ y 1) (+ y 1) (+ y 1) y00)) (* 2 (- x 1) (- x 1) (+ y 1))) (* (- x 1) (- x 1) x00 (+ y 1) (+ y 1))) (* (- x 1) (- x 1) (- x 1) (+ y 1) (+ y 1))) (* 2 (- x 1) (+ y 1) y00) (* 2 (- x 1) x00 (+ y 1))) (* 2 (- x 1) (+ y 1) (+ y 1)) (* (- x 1) (+ y 1) (+ y 1) (+ y 1) (+ y 1))) 0))
				(not (= (+ (- (+ (- (+ (- (+ (- (* (- 1) (+ x 1) (+ x 1) (- y 1) (- y 1) y00) (* (+ x 1) x00 (- y 1) (- y 1) (- y 1))) (* 2 (+ x 1) (+ x 1) (- y 1) (- y 1) (- y 1))) (* (+ x 1) (- y 1) (- y 1) (- y 1) y00)) (* 2 (+ x 1) (+ x 1) (- y 1))) (* (+ x 1) (+ x 1) x00 (- y 1) (- y 1))) (* (+ x 1) (+ x 1) (+ x 1) (- y 1) (- y 1))) (* 2 (+ x 1) (- y 1) y00) (* 2 (+ x 1) x00 (- y 1))) (* 2 (+ x 1) (- y 1) (- y 1)) (* (+ x 1) (- y 1) (- y 1) (- y 1) (- y 1))) 0))
			)
		)
	)
)
(check-sat)
(get-proof)
(exit)
